1502
83 75 52 40 80 33 60 42 73 76 37 88 30 8 47 67 82 97 20 55 31 50 34 59 98 94 35 53 90 68 79 64 23 81 91 65 5 41 38 92 2 54 39 19 46 85 99 27 63 26 36 24 89 43 77 22 95 78 96 44 18 66 16 3 15 72 4 49 51 86 32 57 84 13 48 70 6 93 1 87 62 45 11 69 9 29 7 28 25 58 17 14 74 12 56 61 21 10 71 
